n = 15;
col_counts = [1,2,2,4,3,1,3,1,4,1,1,7,2,2,0];
row_counts = [1,2,4,1,2,3,0,2,7,1,1,5,3,1,1];
ship_lengths = [5,4,4,3,3,3,2,2,2,2,1,1,1,1];
starting_water = [|1,5
                               |2,4
                               |2,6
                               |1,11
                               |1,13
                               |3,7
                               |4,8
                               |4,13
                               |5,12
                               |5,14
                               |6,13
                               |12,1
                               |14,8
                               |15,9
                               |14,11
                               |15,12|];
starting_ships = [|1,12
                             |2,12
                             |2,5
                             |3,5
                             |4,7
                             |5,7
                             |5,13
                             |9,8
                             |10, 12
                             |13,9
                             |14,9
                             |15,11|];